17	4	3
24	25	28	23	16	16	23	
0	0	0	0	0	4	8	9	4	1	4	3	2	3	4
2	10	6	4	0	3	8	5	9	2	1	3	9	11	12
2	1	2	7	0	7	7	5	10	5	10	3	7	10	17
8	3	6	2	1	8	10	3	3	4	7	3	5	10	17
1	9	8	5	5	9	9	6	9	3	5	2	6	17
150	3	0	0	7	4	6	2	2	10	2	1	17
250	0	2	0	1	6	2	10	1	1	2	2	8	17
125	0	0	4	2	1	8	8	6	7	2	2	9	14
25	8	8	0	6	6	4	2	8	6	5	1	17
75	5	0	0	0	4	5	4	10	4	6	3	13	16	17
100	9	1	10	8	4	7	2	6	9	1	2	17	17
250	10	4	4	6	8	4	3	7	4	3	2	17	17
8	0	3	1	2	8	5	10	6	10	7	2	15	17
1	2	1	1	0	7	6	10	8	3	6	1	17
8	3	9	0	2	3	7	1	6	7	4	1	17
6	6	5	9	3	2	1	1	4	6	9	1	17
0	0	0	0	0	4	3	3	7	10	6	0
